100
3363
100 162
33 189
28 75
11 82
77 79
76 27
76 80
43 37
95 133
17 132
8 74
22 130
14 69
68 43
11 123
21 115
26 108
2 133
65 35
26 77
3 143
70 165
42 115
52 75
2 110
70 149
13 52
4 104
29 151
7 101
33 34
53 120
9 176
79 29
88 172
93 152
84 178
17 186
35 73
82 185
72 14
82 93
100 172
69 102
93 18
28 115
95 97
60 18
41 176
20 67
44 199
36 109
65 140
73 194
83 39
14 105
41 182
82 69
15 190
13 119
97 96
80 142
42 15
11 61
78 176
51 168
1 196
87 85
54 119
10 115
79 130
85 156
2 136
41 24
12 195
78 167
16 36
54 32
51 184
91 30
52 53
16 184
83 99
11 77
70 195
84 38
17 120
23 177
47 158
46 154
79 140
7 179
66 164
22 37
47 174
89 136
96 146
31 62
48 164
41 158
